NAME : wi8
TYPE : TSP
DIMENSION : 7
EDGE_WEIGHT_TYPE : EUC_2D
NODE_COORD_SECTION
1 27096.1111 13415.8333
2 27153.6111 13203.3333
3 27166.6667 9833.3333
4 27233.3333 10450.0000
5 27233.3333 11783.3333
6 27266.6667 10383.3333
7 27433.3333 12400.0000